(declare-const |k':71:83| Int)
(declare-const |havoc:5:85| Int)
(declare-const |K:80:81| Int)
(declare-const |phi_pvlen:16| Int)
(declare-const |j':72:82| Int)
(declare-const tmp___2 Int)
(declare-const |k':71:95| Int)
(declare-const |tmp':98| Int)
(declare-const |havoc:0| Int)
(declare-const |havoc:1:97| Int)
(declare-const |K:102| Int)
(declare-const |i':70| Int)
(declare-const |i':70:84| Int)
(declare-const |i':70:94| Int)
(declare-const |tmp___2':86:96| Int)
(declare-const |K:92:93| Int)
(declare-const tmp Int)
(assert (and (or (not (<= (- |K:102|) 0)) (= (+ |i':70| (- |K:102|)) 0))
               (or (and (= |K:102| 0) (= (+ (- |tmp':98|) tmp) 0)
                          (= (- |i':70|) 0))
                     (and (<= (+ (- |K:102|) 1) 0)
                            (<= (+ |i':70| -1000001) 0)
                            (<= (+ (- |i':70|) 1) 0))) (<= (- |K:102|) 0)
               (<= (- |i':70|) 0)
               (or (= |havoc:1:97| 0)
                     (and (not (= |havoc:1:97| 0))
                            (< (+ (- |i':70|) 1000000) 0)))
               (or (and (<= (+ (- |havoc:0|) |i':70|) 0)
                          (= (+ (- |phi_pvlen:16|) |havoc:0|) 0))
                     (and (< (+ |havoc:0| (- |i':70|)) 0)
                            (= (+ (- |phi_pvlen:16|) |i':70|) 0)))
               (or (not (and (<= (- |K:92:93|) 0) (<= |K:92:93| 0)))
                     (= (+ |i':70:94| (- |K:92:93|)) 0))
               (or (not (<= (+ (- |K:92:93|) 1) 0))
                     (= (+ |i':70:94| (- |K:92:93|)) 0))
               (or (not (and (<= (- |K:92:93|) 0) (<= |K:92:93| 0)))
                     (= (+ |k':71:95| (- |K:92:93|)) 0))
               (or (not (<= (+ (- |K:92:93|) 1) 0))
                     (= (+ |k':71:95| (- |K:92:93|)) 0))
               (or (and (= |K:92:93| 0)
                          (= (+ (- |tmp___2':86:96|) tmp___2) 0)
                          (= (- |k':71:95|) 0) (= (- |i':70:94|) 0))
                     (and (<= (+ (- |K:92:93|) 1) 0)
                            (= (+ |k':71:95| (- |i':70:94|)) 0)
                            (<= (+ |i':70:94| -1000001) 0)
                            (<= (+ (- |i':70:94|) 1) 0)))
               (<= (- |K:92:93|) 0) (<= (- |k':71:95|) 0)
               (<= (- |i':70:94|) 0) (= (+ |k':71:95| (- |i':70:94|)) 0)
               (or (= |havoc:5:85| 0)
                     (and (not (= |havoc:5:85| 0))
                            (< (+ (- |i':70:94|) 1000000) 0)))
               (or (not (and (<= (- |K:80:81|) 0) (<= |K:80:81| 0)))
                     (= (+ |j':72:82| (- |K:80:81|)) 0))
               (or (not (<= (+ (- |K:80:81|) 1) 0))
                     (= (+ (* 3 |j':72:82|) (* -3 |K:80:81|) |k':71:95|
                             (- |i':70:94|)) 0))
               (or (not (and (<= (- |K:80:81|) 0) (<= |K:80:81| 0)))
                     (= (+ |k':71:83| |K:80:81| (- |k':71:95|)) 0))
               (or (not (<= (+ (- |K:80:81|) 1) 0))
                     (= (+ (* 3 |k':71:83|) (* 3 |K:80:81|) (- |k':71:95|)
                             (* -2 |i':70:94|)) 0))
               (or (not (and (<= (- |K:80:81|) 0) (<= |K:80:81| 0)))
                     (= (+ |i':70:84| |K:80:81| (- |i':70:94|)) 0))
               (or (not (<= (+ (- |K:80:81|) 1) 0))
                     (= (+ (* 3 |i':70:84|) (* 3 |K:80:81|) (- |k':71:95|)
                             (* -2 |i':70:94|)) 0))
               (or (and (= |K:80:81| 0) (= (- |j':72:82|) 0)
                          (= (+ (- |k':71:83|) |k':71:95|) 0)
                          (= (+ (- |i':70:84|) |i':70:94|) 0))
                     (and (<= (+ (- |K:80:81|) 1) 0)
                            (= (+ |k':71:95| (- |i':70:94|)) 0)
                            (<= (+ (- |i':70:94|) 2) 0)
                            (= (+ |k':71:83| |j':72:82| (- |i':70:94|)) 0)
                            (= (+ |i':70:84| (- |k':71:83|)) 0)
                            (<= (+ (- |k':71:83|) 1) 0)
                            (<= (+ |k':71:83| (- |i':70:94|) 1) 0)))
               (<= (- |K:80:81|) 0) (<= (- |i':70:94|) 0)
               (<= (- |j':72:82|) 0) (<= (- |k':71:83|) 0)
               (<= (- |i':70:84|) 0)
               (= (+ (- |i':70:84|) (- |j':72:82|) |i':70:94|) 0)
               (= (+ (- |i':70:84|) |k':71:83|) 0)
               (not (<= (- |k':71:83|) 0))))
(check-sat)
